; 
(set-info :status unknown)
(declare-fun node_0x7ffff39e63f0 () (_ BitVec 1))
(declare-fun node_0x7ffff39e7da0 () (_ BitVec 1))
(declare-fun node_0x7ffff3a370e0 () (_ BitVec 1))
(declare-fun carg_node_0x7ffff39e5050 () (_ BitVec 64))
(declare-fun carg_node_0x7ffff39e55a0 () (_ BitVec 64))
(declare-fun select_0x7ffff3a37b90 () (_ BitVec 64))
(declare-fun iult_0x7ffff3a37260 () (_ BitVec 1))
(declare-fun LdMem_0x7ffff3a36e10 () (_ BitVec 64))
(declare-fun node_0x7ffff3a36c90 () (_ BitVec 64))
(declare-fun parg_node_0x4d45f800 () (_ BitVec 64))
(declare-fun StMem_0x4d45f650 () (_ BitVec 64))
(declare-fun R0x7ffff39e5160 () (_ BitVec 1))
(declare-fun node_0x7ffff3a36310 () (_ BitVec 64))
(declare-fun LdMem_0x7ffff3a36490 () (_ BitVec 64))
(declare-fun parg_node_0x4d460050 () (_ BitVec 64))
(declare-fun StMem_0x4d45fea0 () (_ BitVec 64))
(declare-fun ine_0x7ffff3a356d0 () (_ BitVec 1))
(declare-fun node_0x7ffff3a353e0 () (_ BitVec 32))
(declare-fun zext_0x7ffff3a351e0 () (_ BitVec 32))
(declare-fun node_0x7ffff3a35060 () (_ BitVec 32))
(declare-fun node_0x7ffff3a34400 () (_ BitVec 8))
(declare-fun LdMem_0x7ffff3a34d90 () (_ BitVec 8))
(declare-fun parg_node_0x4d435940 () (_ BitVec 8))
(declare-fun StMem_0x4d435830 () (_ BitVec 8))
(declare-fun node_0x7ffff39e6f40 () (_ BitVec 1))
(declare-fun ine_0x7ffff3a33980 () (_ BitVec 1))
(declare-fun node_0x7ffff3a335b0 () (_ BitVec 64))
(declare-fun and_0x7ffff3a33750 () (_ BitVec 64))
(declare-fun node_0x7ffff3a33240 () (_ BitVec 64))
(declare-fun p2i_0x7ffff3a333b0 () (_ BitVec 64))
(declare-fun ine_0x7ffff3a32ea0 () (_ BitVec 1))
(declare-fun node_0x7ffff3a32550 () (_ BitVec 32))
(declare-fun zext_0x7ffff3a32350 () (_ BitVec 32))
(declare-fun node_0x7ffff3a321d0 () (_ BitVec 32))
(declare-fun node_0x7ffff3a31d80 () (_ BitVec 8))
(declare-fun LdMem_0x7ffff3a31f00 () (_ BitVec 8))
(declare-fun parg_node_0x4d435700 () (_ BitVec 8))
(declare-fun StMem_0x4d4355f0 () (_ BitVec 8))
(declare-fun node_0x7ffff39e6aa0 () (_ BitVec 1))
(declare-fun ine_0x7ffff3a30cc0 () (_ BitVec 1))
(declare-fun node_0x7ffff3a307b0 () (_ BitVec 64))
(declare-fun and_0x7ffff3a30950 () (_ BitVec 64))
(declare-fun node_0x7ffff3a30410 () (_ BitVec 64))
(declare-fun p2i_0x7ffff39ebe00 () (_ BitVec 64))
(declare-fun node_0x7ffff3a37a10 () (_ BitVec 64))
(declare-fun node_0x7ffff39eda50 () (_ BitVec 1))
(declare-fun node_0x7ffff39ee630 () (_ BitVec 1))
(declare-fun node_0x7ffff39f0740 () (_ BitVec 1))
(declare-fun node_0x7ffff39f1400 () (_ BitVec 1))
(declare-fun node_0x7ffff39f2180 () (_ BitVec 1))
(declare-fun node_0x7ffff39f5df0 () (_ BitVec 1))
(declare-fun node_0x7ffff39f6aa0 () (_ BitVec 1))
(declare-fun node_0x7ffff39f9250 () (_ BitVec 1))
(declare-fun node_0x7ffff39fcdf0 () (_ BitVec 1))
(declare-fun node_0x7ffff39ffbc0 () (_ BitVec 1))
(declare-fun node_0x7ffff3a02eb0 () (_ BitVec 1))
(declare-fun gep_0x7ffff3aa0770 () (_ BitVec 64))
(declare-fun node_0x7ffff3a418f0 () (_ BitVec 64))
(declare-fun islt_0x7ffff3a46ec0 () (_ BitVec 1))
(declare-fun iult_0x7ffff3a481c0 () (_ BitVec 1))
(declare-fun node_0x7ffff3a47da0 () (_ BitVec 64))
(declare-fun udiv_0x7ffff3a47f40 () (_ BitVec 64))
(declare-fun node_0x7ffff3a47790 () (_ BitVec 64))
(declare-fun LdMem_0x7ffff3a47910 () (_ BitVec 64))
(declare-fun R0x28f6d490 () (_ BitVec 1))
(declare-fun R0x28f75380 () (_ BitVec 1))
(declare-fun node_0x7ffff3a4e770 () (_ BitVec 64))
(declare-fun islt_0x7ffff3a4ec30 () (_ BitVec 1))
(declare-fun ieq_0x7ffff3a4f4f0 () (_ BitVec 1))
(declare-fun p2i_0x7ffff3a4e8f0 () (_ BitVec 64))
(declare-fun node_0x7ffff3a34930 () (_ BitVec 64))
(declare-fun LdMem_0x7ffff3a34ad0 () (_ BitVec 64))
(declare-fun StMem_0x4d45e630 () (_ BitVec 64))
(declare-fun StMem_0x4d45dd80 () (_ BitVec 64))
(declare-fun islt_0x7ffff3a57df0 () (_ BitVec 1))
(declare-fun node_0x7ffff3a54790 () (_ BitVec 64))
(declare-fun udiv_0x7ffff3a54930 () (_ BitVec 64))
(declare-fun node_0x7ffff3a54310 () (_ BitVec 64))
(declare-fun LdMem_0x7ffff3a4ff00 () (_ BitVec 64))
(declare-fun ine_0x7ffff3a63d30 () (_ BitVec 1))
(declare-fun node_0x7ffff3a63960 () (_ BitVec 64))
(declare-fun node_0x7ffff3a63590 () (_ BitVec 64))
(declare-fun and_0x7ffff3a63b00 () (_ BitVec 64))
(declare-fun ine_0x7ffff3a66620 () (_ BitVec 1))
(declare-fun node_0x7ffff3a66250 () (_ BitVec 64))
(declare-fun ashr_0x7ffff3a663f0 () (_ BitVec 64))
(declare-fun node_0x7ffff3a65ed0 () (_ BitVec 64))
(declare-fun shl_0x7ffff3a66020 () (_ BitVec 64))
(declare-fun sub_0x7ffff3a63730 () (_ BitVec 64))
(declare-fun node_0x7ffff3a631c0 () (_ BitVec 64))
(declare-fun add_0x7ffff3a63360 () (_ BitVec 64))
(declare-fun p2i_0x7ffff3a62fc0 () (_ BitVec 64))
(declare-fun node_0x7ffff3a62e40 () (_ BitVec 64))
(declare-fun node_0x7ffff3a629d0 () (_ BitVec 64))
(declare-fun LdMem_0x7ffff3a5c530 () (_ BitVec 64))
(declare-fun parg_node_0x4d45e7e0 () (_ BitVec 64))
(declare-fun parg_node_0x4d45df30 () (_ BitVec 64))
(declare-fun node_0x7ffff3a62110 () (_ BitVec 64))
(declare-fun p2i_0x7ffff3a62290 () (_ BitVec 64))
(declare-fun node_0x7ffff3a61ca0 () (_ BitVec 64))
(declare-fun LdMem_0x7ffff3a5b800 () (_ BitVec 64))
(declare-fun pcso_node_0x4d47f670 () (_ BitVec 64))
(declare-fun StMem_0x4d47f7b0 () (_ BitVec 64))
(declare-fun node_0x28e970e0 () (_ BitVec 64))
(declare-fun StMem_0x4d47bf70 () (_ BitVec 64))
(declare-fun node_0x4d4fc210 () (_ BitVec 64))
(declare-fun i2p_0x4d4fc340 () (_ BitVec 64))
(declare-fun node_0x7ffff3a46810 () (_ BitVec 64))
(declare-fun StMem_0x7ffff3a46bb0 () (_ BitVec 64))
(declare-fun i2p_0x7ffff3a469b0 () (_ BitVec 64))
(declare-fun and_0x28f7e5c0 () (_ BitVec 1))
(declare-fun R0x28f7e190 () (_ BitVec 1))
(declare-fun R0x28f7da90 () (_ BitVec 1))
(declare-fun R0x28f7bb40 () (_ BitVec 1))
(declare-fun R0x7ffff39f0c90 () (_ BitVec 1))
(declare-fun R0x28f7d5e0 () (_ BitVec 1))
(declare-fun and_0x28f7de80 () (_ BitVec 1))
(declare-fun and_0x28f7f2e0 () (_ BitVec 1))
(declare-fun R0x28f7ef50 () (_ BitVec 1))
(declare-fun R0x28f7e920 () (_ BitVec 1))
(declare-fun and_0x28f7ec40 () (_ BitVec 1))
(declare-fun R0x28f7af30 () (_ BitVec 1))
(declare-fun R0x28f79410 () (_ BitVec 1))
(declare-fun xor_0x28f7d7c0 () (_ BitVec 1))
(declare-fun R0x28f7ccb0 () (_ BitVec 1))
(declare-fun and_0x28f7d0f0 () (_ BitVec 1))
(declare-fun or_0x28f7bde0 () (_ BitVec 1))
(declare-fun R0x28f765e0 () (_ BitVec 1))
(declare-fun and_0x28f7b8b0 () (_ BitVec 1))
(declare-fun R0x28f7b4e0 () (_ BitVec 1))
(declare-fun xor_0x28f7b110 () (_ BitVec 1))
(declare-fun and_0x28f79730 () (_ BitVec 1))
(declare-fun R0x7ffff39f19d0 () (_ BitVec 1))
(declare-fun and_0x7ffff39f1df0 () (_ BitVec 1))
(declare-fun R0x7ffff39f1720 () (_ BitVec 1))
(declare-fun islt_0x7ffff3a450e0 () (_ BitVec 1))
(declare-fun and_0x7ffff39f1070 () (_ BitVec 1))
(declare-fun R0x7ffff39f0970 () (_ BitVec 1))
(declare-fun iult_0x7ffff3a441e0 () (_ BitVec 1))
(declare-fun mul_0x7ffff3a43fb0 () (_ BitVec 64))
(declare-fun node_0x7ffff3a43e10 () (_ BitVec 64))
(declare-fun node_0x7ffff3a40cf0 () (_ BitVec 64))
(declare-fun node_0x7ffff3a3bf70 () (_ BitVec 64))
(declare-fun node_0x7ffff3a438f0 () (_ BitVec 64))
(declare-fun LdMem_0x7ffff3a43a70 () (_ BitVec 64))
(declare-fun parg_node_0x4d479960 () (_ BitVec 64))
(declare-fun StMem_0x4d479820 () (_ BitVec 64))
(declare-fun R0x7ffff39f0010 () (_ BitVec 1))
(declare-fun or_0x7ffff39f03b0 () (_ BitVec 1))
(declare-fun and_0x7ffff39efcd0 () (_ BitVec 1))
(declare-fun R0x7ffff39ef8d0 () (_ BitVec 1))
(declare-fun R0x7ffff39ef3c0 () (_ BitVec 1))
(declare-fun R0x7ffff39edfa0 () (_ BitVec 1))
(declare-fun and_0x7ffff39ee360 () (_ BitVec 1))
(declare-fun R0x7ffff39edc80 () (_ BitVec 1))
(declare-fun R0x7ffff39e98a0 () (_ BitVec 1))
(declare-fun xor_0x7ffff39ef600 () (_ BitVec 1))
(declare-fun ine_0x7ffff3a41510 () (_ BitVec 1))
(declare-fun node_0x7ffff3a410f0 () (_ BitVec 64))
(declare-fun srem_0x7ffff3a41290 () (_ BitVec 64))
(declare-fun node_0x7ffff3a401e0 () (_ BitVec 64))
(declare-fun add_0x7ffff3a40e60 () (_ BitVec 64))
(declare-fun R0x7ffff39eed80 () (_ BitVec 1))
(declare-fun and_0x7ffff39ef140 () (_ BitVec 1))
(declare-fun R0x7ffff39ee8a0 () (_ BitVec 1))
(declare-fun and_0x7ffff39e9c20 () (_ BitVec 1))
(declare-fun xor_0x7ffff39e95d0 () (_ BitVec 1))
(declare-fun R0x7ffff39e93c0 () (_ BitVec 1))
(declare-fun R0x7ffff39e5c90 () (_ BitVec 1))
(declare-fun xor_0x7ffff39e6070 () (_ BitVec 1))
(declare-fun xor_0x7ffff39eeab0 () (_ BitVec 1))
(declare-fun ine_0x7ffff3a40940 () (_ BitVec 1))
(declare-fun node_0x7ffff3a40550 () (_ BitVec 64))
(declare-fun srem_0x7ffff3a406c0 () (_ BitVec 64))
(declare-fun ashr_0x7ffff3a3ffb0 () (_ BitVec 64))
(declare-fun node_0x7ffff3a3fe10 () (_ BitVec 64))
(declare-fun node_0x7ffff3a3fa90 () (_ BitVec 64))
(declare-fun p2i_0x7ffff3a3fc10 () (_ BitVec 64))
(declare-fun node_0x7ffff3a3f620 () (_ BitVec 64))
(declare-fun LdMem_0x7ffff3a3f7c0 () (_ BitVec 64))
(declare-fun StMem_0x4d45d500 () (_ BitVec 64))
(declare-fun StMem_0x4d45cd60 () (_ BitVec 64))
(declare-fun node_0x7ffff39ecc40 () (_ BitVec 1))
(declare-fun ine_0x7ffff3a3e0c0 () (_ BitVec 1))
(declare-fun node_0x7ffff3a3ddd0 () (_ BitVec 32))
(declare-fun zext_0x7ffff3a3dbd0 () (_ BitVec 32))
(declare-fun node_0x7ffff3a3da50 () (_ BitVec 32))
(declare-fun node_0x7ffff3a3d600 () (_ BitVec 8))
(declare-fun LdMem_0x7ffff3a3d780 () (_ BitVec 8))
(declare-fun node_0x7ffff39ebcb0 () (_ BitVec 1))
(declare-fun ine_0x7ffff3a3c980 () (_ BitVec 1))
(declare-fun node_0x7ffff3a3c5b0 () (_ BitVec 64))
(declare-fun and_0x7ffff3a3c750 () (_ BitVec 64))
(declare-fun node_0x7ffff3a3c260 () (_ BitVec 64))
(declare-fun p2i_0x7ffff3a3c3b0 () (_ BitVec 64))
(declare-fun node_0x7ffff3a375d0 () (_ BitVec 64))
(declare-fun select_0x7ffff3a37770 () (_ BitVec 64))
(declare-fun ashr_0x7ffff3a3bd40 () (_ BitVec 64))
(declare-fun node_0x7ffff3a3bba0 () (_ BitVec 64))
(declare-fun node_0x7ffff3a3b6e0 () (_ BitVec 64))
(declare-fun p2i_0x7ffff3a3b860 () (_ BitVec 64))
(declare-fun node_0x7ffff3a3b270 () (_ BitVec 64))
(declare-fun LdMem_0x7ffff3a3b410 () (_ BitVec 64))
(declare-fun parg_node_0x4d45d6b0 () (_ BitVec 64))
(declare-fun parg_node_0x4d45cf10 () (_ BitVec 64))
(declare-fun node_0x7ffff39eae30 () (_ BitVec 1))
(declare-fun ine_0x7ffff3a39ce0 () (_ BitVec 1))
(declare-fun node_0x7ffff3a399f0 () (_ BitVec 32))
(declare-fun zext_0x7ffff3a397f0 () (_ BitVec 32))
(declare-fun node_0x7ffff3a39670 () (_ BitVec 32))
(declare-fun node_0x7ffff3a39220 () (_ BitVec 8))
(declare-fun LdMem_0x7ffff3a393a0 () (_ BitVec 8))
(declare-fun xor_0x28f75560 () (_ BitVec 1))
(declare-fun node_0x7ffff39e9ef0 () (_ BitVec 1))
(declare-fun ine_0x7ffff3a38580 () (_ BitVec 1))
(declare-fun node_0x7ffff3a381b0 () (_ BitVec 64))
(declare-fun and_0x7ffff3a38350 () (_ BitVec 64))
(declare-fun node_0x7ffff3a37e30 () (_ BitVec 64))
(declare-fun p2i_0x7ffff3a37fb0 () (_ BitVec 64))
(declare-fun node_0x4d47b690 () (_ BitVec 64))
(declare-fun parg_node_0x393ae750_CS0x36438f8 () (_ BitVec 64))
(declare-fun LdMem_0x4d47b320 () (_ BitVec 64))
(declare-fun parg_node_0x4d4436e0 () (_ BitVec 64))
(declare-fun StMem_0x4d443ac0 () (_ BitVec 64))
(declare-fun node_0x4d47bc00 () (_ BitVec 64))
(declare-fun parg_node_0x393aeb60_CS0x36438f8 () (_ BitVec 64))
(declare-fun LdMem_0x4d47b890 () (_ BitVec 64))
(declare-fun parg_node_0x4d444390 () (_ BitVec 64))
(declare-fun StMem_0x4d4441e0 () (_ BitVec 64))
(declare-fun node_0x4d47c430 () (_ BitVec 64))
(declare-fun parg_node_0x393b16a0_CS0x36438f8 () (_ BitVec 64))
(declare-fun LdMem_0x4d47be00 () (_ BitVec 64))
(declare-fun node_0x7ffff3a449f0 () (_ BitVec 64))
(declare-fun carg_node_0x7fffe96d5c00_CS0x36438f8 () (_ BitVec 64))
(declare-fun mul_0x7ffff3a44b70 () (_ BitVec 64))
(declare-fun node_0x4d47c9a0 () (_ BitVec 64))
(declare-fun parg_node_0x393adaa0_CS0x36438f8 () (_ BitVec 64))
(declare-fun LdMem_0x4d47c630 () (_ BitVec 64))
(declare-fun node_0x4d47d3c0 () (_ BitVec 64))
(declare-fun parg_node_0x393adce0_CS0x36438f8 () (_ BitVec 64))
(declare-fun LdMem_0x4d47ac70 () (_ BitVec 64))
(declare-fun parg_node_0x4d47af90 () (_ BitVec 64))
(declare-fun StMem_0x4d47ade0 () (_ BitVec 64))
(declare-fun node_0x393b42e0_CS0x36438f8 () (_ BitVec 64))
(declare-fun node_0x7ffff3aa0510 () (_ BitVec 64))
(assert
 (let (($x169 (= node_0x7ffff39e63f0 (_ bv1 1))))
 (let (($x172 (not $x169)))
 (let (($x171 (= node_0x7ffff39e7da0 (_ bv1 1))))
 (let (($x248 (not $x171)))
 (let (($x249 (and $x248 $x172)))
 (let (($x3071 (= node_0x7ffff3a370e0 (_ bv0 1))))
 (and $x3071 $x249))))))))
(assert
 (let (($x322 (= node_0x7ffff3a370e0 (_ bv1 1))))
 (let (($x324 (= select_0x7ffff3a37b90 (ite $x322 carg_node_0x7ffff39e55a0 carg_node_0x7ffff39e5050))))
 (let (($x3189 (= node_0x7ffff3a370e0 iult_0x7ffff3a37260)))
 (let (($x2491 (= node_0x7ffff3a36c90 LdMem_0x7ffff3a36e10)))
 (let (($x3096 (= StMem_0x4d45f650 parg_node_0x4d45f800)))
 (let (($x2102 (= LdMem_0x7ffff3a36e10 StMem_0x4d45f650)))
 (let (($x92491 (not (= R0x7ffff39e5160 (_ bv1 1)))))
 (let (($x95663 (or $x92491 $x2102)))
 (let (($x331 (= iult_0x7ffff3a37260 (ite (bvult node_0x7ffff3a36310 node_0x7ffff3a36c90) (_ bv1 1) (_ bv0 1)))))
 (let (($x3176 (= node_0x7ffff3a36310 LdMem_0x7ffff3a36490)))
 (let (($x2375 (= StMem_0x4d45fea0 parg_node_0x4d460050)))
 (let (($x2617 (= LdMem_0x7ffff3a36490 StMem_0x4d45fea0)))
 (let (($x2540 (or $x92491 $x2617)))
 (let (($x3634 (= node_0x7ffff39e7da0 ine_0x7ffff3a356d0)))
 (let (($x225 (= ine_0x7ffff3a356d0 (ite (and (distinct node_0x7ffff3a353e0 (_ bv5 32)) true) (_ bv1 1) (_ bv0 1)))))
 (let (($x2541 (= node_0x7ffff3a35060 zext_0x7ffff3a351e0)))
 (let (($x258 (= zext_0x7ffff3a351e0 ((_ zero_extend 24) node_0x7ffff3a34400))))
 (let (($x94681 (= node_0x7ffff3a34400 LdMem_0x7ffff3a34d90)))
 (let (($x2487 (= StMem_0x4d435830 parg_node_0x4d435940)))
 (let (($x2485 (= LdMem_0x7ffff3a34d90 StMem_0x4d435830)))
 (let (($x2313 (or $x92491 $x2485)))
 (let (($x987 (= node_0x7ffff3a353e0 (_ bv1 32))))
 (let (($x1063 (= node_0x7ffff3a353e0 node_0x7ffff3a35060)))
 (let (($x2609 (or $x1063 $x987)))
 (let (($x227 (= node_0x7ffff39e6f40 (_ bv1 1))))
 (let (($x169 (= node_0x7ffff39e63f0 (_ bv1 1))))
 (let (($x172 (not $x169)))
 (let (($x1960 (or (not (and $x172 $x227)) $x987)))
 (let (($x3133 (or (not (and (not $x227) $x172)) $x1063)))
 (let (($x3118 (= node_0x7ffff39e6f40 ine_0x7ffff3a33980)))
 (let (($x235 (= ine_0x7ffff3a33980 (ite (and (distinct node_0x7ffff3a335b0 (_ bv0 64)) true) (_ bv1 1) (_ bv0 1)))))
 (let (($x5859 (= node_0x7ffff3a335b0 and_0x7ffff3a33750)))
 (let (($x240 (= and_0x7ffff3a33750 (bvand node_0x7ffff3a33240 (_ bv1 64)))))
 (let (($x244 (= p2i_0x7ffff3a333b0 carg_node_0x7ffff39e55a0)))
 (let (($x113 (= node_0x7ffff3a33240 p2i_0x7ffff3a333b0)))
 (let (($x94699 (= node_0x7ffff39e63f0 ine_0x7ffff3a32ea0)))
 (let (($x179 (= ine_0x7ffff3a32ea0 (ite (and (distinct node_0x7ffff3a32550 (_ bv5 32)) true) (_ bv1 1) (_ bv0 1)))))
 (let (($x3206 (= node_0x7ffff3a321d0 zext_0x7ffff3a32350)))
 (let (($x210 (= zext_0x7ffff3a32350 ((_ zero_extend 24) node_0x7ffff3a31d80))))
 (let (($x2653 (= node_0x7ffff3a31d80 LdMem_0x7ffff3a31f00)))
 (let (($x3103 (= StMem_0x4d4355f0 parg_node_0x4d435700)))
 (let (($x3138 (= LdMem_0x7ffff3a31f00 StMem_0x4d4355f0)))
 (let (($x3152 (or $x92491 $x3138)))
 (let (($x438 (= node_0x7ffff3a32550 (_ bv1 32))))
 (let (($x377 (= node_0x7ffff3a32550 node_0x7ffff3a321d0)))
 (let (($x3153 (or $x377 $x438)))
 (let (($x181 (= node_0x7ffff39e6aa0 (_ bv1 1))))
 (let (($x182 (not $x181)))
 (let (($x3067 (or $x182 $x438)))
 (let (($x3102 (or $x181 $x377)))
 (let (($x1785 (= node_0x7ffff39e6aa0 ine_0x7ffff3a30cc0)))
 (let (($x188 (= ine_0x7ffff3a30cc0 (ite (and (distinct node_0x7ffff3a307b0 (_ bv0 64)) true) (_ bv1 1) (_ bv0 1)))))
 (let (($x1225 (= node_0x7ffff3a307b0 and_0x7ffff3a30950)))
 (let (($x194 (= and_0x7ffff3a30950 (bvand node_0x7ffff3a30410 (_ bv1 64)))))
 (let (($x198 (= p2i_0x7ffff39ebe00 carg_node_0x7ffff39e5050)))
 (let (($x3093 (= node_0x7ffff3a30410 p2i_0x7ffff39ebe00)))
 (and $x3093 $x198 $x194 $x1225 $x188 $x1785 $x3102 $x3067 $x3153 $x3152 $x3138 $x3103 $x2653 $x210 $x3206 $x179 $x94699 $x113 $x244 $x240 $x5859 $x235 $x3118 $x3133 $x1960 $x2609 $x2313 $x2485 $x2487 $x94681 $x258 $x2541 $x225 $x3634 $x2540 $x2617 $x2375 $x3176 $x331 $x95663 $x2102 $x3096 $x2491 $x3189 $x324))))))))))))))))))))))))))))))))))))))))))))))))))))))))))
(assert
 (= node_0x7ffff3a37a10 select_0x7ffff3a37b90))
(assert
 (let (($x169 (= node_0x7ffff39e63f0 (_ bv1 1))))
 (let (($x172 (not $x169)))
 (let (($x171 (= node_0x7ffff39e7da0 (_ bv1 1))))
 (let (($x248 (not $x171)))
 (let (($x249 (and $x248 $x172)))
 (let (($x204 (= node_0x7ffff39eda50 (_ bv1 1))))
 (let (($x298 (and $x204 $x249)))
 (let (($x278 (= node_0x7ffff39ee630 (_ bv1 1))))
 (let (($x501 (not $x278)))
 (let (($x503 (or (and (not $x204) $x249) (and $x501 $x298))))
 (let (($x201 (= node_0x7ffff39f0740 (_ bv1 1))))
 (let (($x519 (and $x201 $x503)))
 (let (($x200 (= node_0x7ffff39f1400 (_ bv1 1))))
 (let (($x689 (and $x200 $x519)))
 (let (($x576 (or (and (not $x201) $x503) (and (not $x200) $x519) (and (not (= node_0x7ffff39f2180 (_ bv1 1))) $x689))))
 (let (($x351 (= node_0x7ffff39f5df0 (_ bv1 1))))
 (let (($x564 (and $x351 $x576)))
 (let (($x557 (= node_0x7ffff39f6aa0 (_ bv1 1))))
 (let (($x765 (not $x557)))
 (let (($x766 (and $x765 $x564)))
 (let (($x764 (= node_0x7ffff39f9250 (_ bv1 1))))
 (let (($x767 (and $x764 $x766)))
 (let (($x762 (= node_0x7ffff39fcdf0 (_ bv1 1))))
 (let (($x883 (and $x762 $x767)))
 (let (($x1613 (= node_0x7ffff39ffbc0 (_ bv1 1))))
 (let (($x1393 (not $x1613)))
 (let (($x385 (and $x1393 $x883)))
 (let (($x1384 (= node_0x7ffff3a02eb0 (_ bv1 1))))
 (or (and $x1613 $x883) (and $x1384 $x385)))))))))))))))))))))))))))))))
(assert
 (let (($x3202 (= node_0x7ffff3a37a10 (_ bv0 64))))
 (let (($x3059 (or $x3202 (and (distinct node_0x7ffff3a37a10 (_ bv0 64)) true))))
 (let (($x6238 (and (= gep_0x7ffff3aa0770 (ite $x3202 (_ bv0 64) node_0x7ffff3a37a10)) $x3059)))
 (let (($x616 (= islt_0x7ffff3a46ec0 (ite (bvslt (_ bv1 64) node_0x7ffff3a418f0) (_ bv1 1) (_ bv0 1)))))
 (let (($x4295 (= node_0x7ffff39f2180 islt_0x7ffff3a46ec0)))
 (let (($x4204 (= node_0x7ffff39f5df0 iult_0x7ffff3a481c0)))
 (let (($x560 (= iult_0x7ffff3a481c0 (ite (bvult (_ bv1 64) node_0x7ffff3a47da0) (_ bv1 1) (_ bv0 1)))))
 (let (($x2978 (= node_0x7ffff3a47da0 udiv_0x7ffff3a47f40)))
 (let (($x726 (or (or (= node_0x7ffff3a47790 (_ bv0 64)) (= (_ bv10 64) (_ bv0 64))) (and (distinct udiv_0x7ffff3a47f40 (_ bv0 64)) true))))
 (let (($x670 (and (= udiv_0x7ffff3a47f40 (bvudiv node_0x7ffff3a47790 (_ bv10 64))) $x726)))
 (let (($x4267 (= node_0x7ffff3a47790 LdMem_0x7ffff3a47910)))
 (let (($x3150 (= LdMem_0x7ffff3a47910 StMem_0x4d45fea0)))
 (let (($x3310 (= LdMem_0x7ffff3a47910 StMem_0x4d45f650)))
 (let (($x3304 (or $x3310 $x3150)))
 (let (($x315 (= R0x28f6d490 (_ bv1 1))))
 (let (($x414 (not $x315)))
 (let (($x3070 (or $x414 $x3150)))
 (let (($x1274 (= R0x28f75380 (_ bv1 1))))
 (let (($x1108 (not $x1274)))
 (let (($x3604 (or $x1108 $x3310)))
 (let (($x734 (= islt_0x7ffff3a4ec30 (ite (bvslt node_0x7ffff3a4e770 (_ bv5 64)) (_ bv1 1) (_ bv0 1)))))
 (let (($x3109 (= node_0x7ffff39f6aa0 islt_0x7ffff3a4ec30)))
 (let (($x4278 (= node_0x7ffff39f9250 ieq_0x7ffff3a4f4f0)))
 (let (($x770 (= node_0x7ffff3a4e770 (_ bv5 64))))
 (let ((?x771 (ite $x770 (_ bv1 1) (_ bv0 1))))
 (let (($x772 (= ieq_0x7ffff3a4f4f0 ?x771)))
 (let (($x3942 (= node_0x7ffff3a4e770 p2i_0x7ffff3a4e8f0)))
 (let (($x738 (= p2i_0x7ffff3a4e8f0 node_0x7ffff3a34930)))
 (let (($x2983 (= node_0x7ffff3a34930 LdMem_0x7ffff3a34ad0)))
 (let (($x3966 (= LdMem_0x7ffff3a34ad0 StMem_0x4d45e630)))
 (let (($x3745 (= LdMem_0x7ffff3a34ad0 StMem_0x4d45dd80)))
 (let (($x2991 (or $x3745 $x3966)))
 (let (($x3961 (or $x414 $x3966)))
 (let (($x3358 (or $x1108 $x3745)))
 (let (($x4096 (= node_0x7ffff39fcdf0 islt_0x7ffff3a57df0)))
 (let (($x889 (= islt_0x7ffff3a57df0 (ite (bvslt (_ bv1 64) node_0x7ffff3a54790) (_ bv1 1) (_ bv0 1)))))
 (let (($x3776 (= node_0x7ffff3a54790 udiv_0x7ffff3a54930)))
 (let (($x898 (or (or (= node_0x7ffff3a54310 (_ bv0 64)) (= (_ bv10 64) (_ bv0 64))) (and (distinct udiv_0x7ffff3a54930 (_ bv0 64)) true))))
 (let (($x899 (and (= udiv_0x7ffff3a54930 (bvudiv node_0x7ffff3a54310 (_ bv10 64))) $x898)))
 (let (($x3532 (= node_0x7ffff3a54310 LdMem_0x7ffff3a4ff00)))
 (let (($x3060 (= LdMem_0x7ffff3a4ff00 StMem_0x4d45fea0)))
 (let (($x3373 (= LdMem_0x7ffff3a4ff00 StMem_0x4d45f650)))
 (let (($x3369 (or $x3373 $x3060)))
 (let (($x3099 (or $x1108 $x3060)))
 (let (($x3884 (or $x414 $x3373)))
 (let (($x3160 (= node_0x7ffff39ffbc0 ine_0x7ffff3a63d30)))
 (let (($x1250 (= ine_0x7ffff3a63d30 (ite (and (distinct node_0x7ffff3a63960 (_ bv1 64)) true) (_ bv1 1) (_ bv0 1)))))
 (let (($x1220 (= and_0x7ffff3a63b00 (bvand node_0x7ffff3a63590 (_ bv3 64)))))
 (let (($x4300 (= node_0x7ffff3a63960 and_0x7ffff3a63b00)))
 (let (($x6413 (= node_0x7ffff3a02eb0 ine_0x7ffff3a66620)))
 (let (($x95929 (= ine_0x7ffff3a66620 (ite (and (distinct node_0x7ffff3a66250 node_0x7ffff3a63590) true) (_ bv1 1) (_ bv0 1)))))
 (let (($x5930 (= node_0x7ffff3a66250 ashr_0x7ffff3a663f0)))
 (let (($x1611 (or (or (= node_0x7ffff3a65ed0 (_ bv0 64)) (bvsge (_ bv1 64) (_ bv10 64))) (and (distinct ashr_0x7ffff3a663f0 (_ bv0 64)) true))))
 (let (($x1581 (and (= ashr_0x7ffff3a663f0 (bvashr node_0x7ffff3a65ed0 (_ bv1 64))) $x1611)))
 (let (($x5881 (= node_0x7ffff3a65ed0 shl_0x7ffff3a66020)))
 (let (($x1415 (or (or (= node_0x7ffff3a63590 (_ bv0 64)) (bvsge (_ bv1 64) (_ bv10 64))) (and (distinct shl_0x7ffff3a66020 (_ bv0 64)) true))))
 (let (($x1325 (and (= shl_0x7ffff3a66020 (bvshl node_0x7ffff3a63590 (_ bv1 64))) $x1415)))
 (let (($x5497 (= node_0x7ffff3a63590 sub_0x7ffff3a63730)))
 (let (($x1048 (= sub_0x7ffff3a63730 (bvsub node_0x7ffff3a631c0 (_ bv1 64)))))
 (let (($x5337 (= node_0x7ffff3a631c0 add_0x7ffff3a63360)))
 (let (($x3324 (= node_0x7ffff3a62e40 p2i_0x7ffff3a62fc0)))
 (let (($x1423 (= p2i_0x7ffff3a62fc0 node_0x7ffff3a629d0)))
 (let (($x3982 (= node_0x7ffff3a629d0 LdMem_0x7ffff3a5c530)))
 (let (($x3948 (= StMem_0x4d45e630 parg_node_0x4d45e7e0)))
 (let (($x4693 (= StMem_0x4d45dd80 parg_node_0x4d45df30)))
 (let (($x280 (= LdMem_0x7ffff3a5c530 StMem_0x4d45e630)))
 (let (($x1172 (= LdMem_0x7ffff3a5c530 StMem_0x4d45dd80)))
 (let (($x3288 (or $x1172 $x280)))
 (let (($x3294 (or $x1108 $x280)))
 (let (($x3910 (or $x414 $x1172)))
 (let (($x814 (= add_0x7ffff3a63360 (bvadd node_0x7ffff3a62110 node_0x7ffff3a62e40))))
 (let (($x5200 (= node_0x7ffff3a62110 p2i_0x7ffff3a62290)))
 (let (($x1399 (= p2i_0x7ffff3a62290 node_0x7ffff3a61ca0)))
 (let (($x5999 (= node_0x7ffff3a61ca0 LdMem_0x7ffff3a5b800)))
 (let (($x4169 (= StMem_0x4d47f7b0 pcso_node_0x4d47f670)))
 (let (($x4414 (= StMem_0x4d47bf70 node_0x28e970e0)))
 (let (($x1069 (= i2p_0x4d4fc340 node_0x4d4fc210)))
 (let (($x4253 (= node_0x28e970e0 i2p_0x4d4fc340)))
 (let (($x3046 (= StMem_0x7ffff3a46bb0 node_0x7ffff3a46810)))
 (let (($x70 (= i2p_0x7ffff3a469b0 (_ bv1 64))))
 (let (($x3155 (= node_0x7ffff3a46810 i2p_0x7ffff3a469b0)))
 (let (($x1529 (= LdMem_0x7ffff3a5b800 StMem_0x4d47f7b0)))
 (let (($x1449 (= LdMem_0x7ffff3a5b800 StMem_0x4d47bf70)))
 (let (($x3327 (= LdMem_0x7ffff3a5b800 StMem_0x7ffff3a46bb0)))
 (let (($x4051 (or $x3327 $x1449 $x1529)))
 (let (($x4302 (= R0x28f7e190 and_0x28f7e5c0)))
 (let (($x716 (= and_0x28f7e5c0 (bvand R0x28f7bb40 R0x28f7da90))))
 (let (($x1109 (= and_0x28f7de80 (bvand R0x28f7d5e0 R0x7ffff39f0c90))))
 (let (($x2917 (= R0x28f7da90 and_0x28f7de80)))
 (let (($x1256 (= R0x28f7e190 (_ bv1 1))))
 (let (($x549 (not $x1256)))
 (let (($x3011 (or $x549 $x1529)))
 (let (($x4325 (= R0x28f7ef50 and_0x28f7f2e0)))
 (let (($x65 (= and_0x28f7f2e0 (bvand R0x28f7bb40 R0x28f7e920))))
 (let (($x5317 (= R0x28f7e920 and_0x28f7ec40)))
 (let (($x1183 (= and_0x28f7ec40 (bvand R0x28f7af30 R0x28f7d5e0))))
 (let (($x134 (= xor_0x28f7d7c0 (bvxor R0x28f79410 (_ bv1 1)))))
 (let (($x3968 (= R0x28f7d5e0 xor_0x28f7d7c0)))
 (let (($x123 (= R0x28f7ef50 (_ bv1 1))))
 (let (($x1062 (not $x123)))
 (let (($x3370 (or $x1062 $x1449)))
 (let (($x1257 (= R0x28f7ccb0 (_ bv1 1))))
 (let (($x72 (not $x1257)))
 (let (($x4290 (or $x72 $x3327)))
 (let (($x5360 (= R0x28f7ccb0 and_0x28f7d0f0)))
 (let (($x3364 (= R0x28f7bb40 or_0x28f7bde0)))
 (let (($x370 (= and_0x28f7b8b0 (bvand R0x28f765e0 R0x7ffff39f0c90))))
 (let (($x3016 (= R0x28f7b4e0 and_0x28f7b8b0)))
 (let ((?x1162 (bvor R0x28f7af30 R0x28f7b4e0)))
 (let (($x1238 (= or_0x28f7bde0 ?x1162)))
 (let (($x593 (= xor_0x28f7b110 (bvxor R0x7ffff39f0c90 (_ bv1 1)))))
 (let (($x3913 (= R0x28f7af30 xor_0x28f7b110)))
 (let (($x695 (= and_0x28f7d0f0 (bvand R0x28f79410 R0x28f7bb40))))
 (let (($x5335 (= R0x28f79410 and_0x28f79730)))
 (let (($x28 (= and_0x28f79730 (bvand R0x28f765e0 R0x7ffff39f19d0))))
 (let (($x5626 (= R0x7ffff39f19d0 and_0x7ffff39f1df0)))
 (let (($x4274 (= R0x7ffff39f1720 node_0x7ffff39f1400)))
 (let (($x568 (= islt_0x7ffff3a450e0 (ite (bvslt (_ bv0 64) node_0x7ffff3a418f0) (_ bv1 1) (_ bv0 1)))))
 (let (($x4281 (= node_0x7ffff39f1400 islt_0x7ffff3a450e0)))
 (let (($x250 (= and_0x7ffff39f1df0 (bvand R0x7ffff39f0c90 R0x7ffff39f1720))))
 (let (($x4704 (= R0x7ffff39f0c90 and_0x7ffff39f1070)))
 (let (($x2976 (= R0x7ffff39f0970 node_0x7ffff39f0740)))
 (let (($x5852 (= node_0x7ffff39f0740 iult_0x7ffff3a441e0)))
 (let (($x3954 (= node_0x7ffff3a43e10 mul_0x7ffff3a43fb0)))
 (let (($x540 (= node_0x7ffff3a418f0 (_ bv0 64))))
 (let (($x542 (or $x540 (= (_ bv8 64) (_ bv0 64)))))
 (let (($x545 (and (= mul_0x7ffff3a43fb0 (bvmul node_0x7ffff3a418f0 (_ bv8 64))) (or $x542 (and (distinct mul_0x7ffff3a43fb0 (_ bv0 64)) true)))))
 (let (($x1284 (= node_0x7ffff3a418f0 node_0x7ffff3a40cf0)))
 (let (($x1107 (= node_0x7ffff3a418f0 node_0x7ffff3a3bf70)))
 (let (($x3188 (or $x1107 $x1284)))
 (let (($x278 (= node_0x7ffff39ee630 (_ bv1 1))))
 (let (($x501 (not $x278)))
 (let (($x169 (= node_0x7ffff39e63f0 (_ bv1 1))))
 (let (($x172 (not $x169)))
 (let (($x171 (= node_0x7ffff39e7da0 (_ bv1 1))))
 (let (($x248 (not $x171)))
 (let (($x249 (and $x248 $x172)))
 (let (($x204 (= node_0x7ffff39eda50 (_ bv1 1))))
 (let (($x298 (and $x204 $x249)))
 (let (($x3366 (or (not (and $x298 $x501)) $x1284)))
 (let (($x2984 (or (not (and $x249 (not $x204))) $x1107)))
 (let (($x526 (= iult_0x7ffff3a441e0 (ite (bvult node_0x7ffff3a438f0 node_0x7ffff3a43e10) (_ bv1 1) (_ bv0 1)))))
 (let (($x4007 (= node_0x7ffff3a438f0 LdMem_0x7ffff3a43a70)))
 (let (($x4428 (= StMem_0x4d479820 parg_node_0x4d479960)))
 (let (($x4896 (= LdMem_0x7ffff3a43a70 StMem_0x4d479820)))
 (let (($x92491 (not (= R0x7ffff39e5160 (_ bv1 1)))))
 (let (($x3665 (or $x92491 $x4896)))
 (let (($x1079 (= and_0x7ffff39f1070 (bvand R0x7ffff39f0010 R0x7ffff39f0970))))
 (let (($x4879 (= R0x7ffff39f0010 or_0x7ffff39f03b0)))
 (let (($x3315 (= R0x7ffff39ef8d0 and_0x7ffff39efcd0)))
 (let (($x1128 (= and_0x7ffff39efcd0 (bvand R0x7ffff39edfa0 R0x7ffff39ef3c0))))
 (let (($x2964 (= R0x7ffff39edfa0 and_0x7ffff39ee360)))
 (let (($x2985 (= R0x7ffff39edc80 node_0x7ffff39eda50)))
 (let (($x531 (= and_0x7ffff39ee360 (bvand R0x7ffff39e98a0 R0x7ffff39edc80))))
 (let (($x3909 (= R0x7ffff39ef3c0 xor_0x7ffff39ef600)))
 (let (($x595 (= xor_0x7ffff39ef600 (bvxor node_0x7ffff39ee630 (_ bv1 1)))))
 (let (($x3313 (= node_0x7ffff39ee630 ine_0x7ffff3a41510)))
 (let (($x509 (= ine_0x7ffff3a41510 (ite (and (distinct node_0x7ffff3a410f0 (_ bv0 64)) true) (_ bv1 1) (_ bv0 1)))))
 (let (($x3325 (= node_0x7ffff3a410f0 srem_0x7ffff3a41290)))
 (let (($x514 (= srem_0x7ffff3a41290 (bvsrem node_0x7ffff3a40cf0 node_0x7ffff3a401e0))))
 (let (($x518 (= add_0x7ffff3a40e60 (bvadd node_0x7ffff3a3bf70 node_0x7ffff3a3bf70))))
 (let (($x2966 (= node_0x7ffff3a40cf0 add_0x7ffff3a40e60)))
 (let ((?x1114 (bvor R0x7ffff39eed80 R0x7ffff39ef8d0)))
 (let (($x1159 (= or_0x7ffff39f03b0 ?x1114)))
 (let (($x4622 (= R0x7ffff39eed80 and_0x7ffff39ef140)))
 (let (($x52 (= and_0x7ffff39ef140 (bvand R0x7ffff39e98a0 R0x7ffff39ee8a0))))
 (let (($x5901 (= R0x7ffff39e98a0 and_0x7ffff39e9c20)))
 (let (($x34 (= xor_0x7ffff39e95d0 (bvxor node_0x7ffff39e7da0 (_ bv1 1)))))
 (let (($x4994 (= R0x7ffff39e93c0 xor_0x7ffff39e95d0)))
 (let (($x231 (= and_0x7ffff39e9c20 (bvand R0x7ffff39e5c90 R0x7ffff39e93c0))))
 (let (($x151 (= xor_0x7ffff39e6070 (bvxor node_0x7ffff39e63f0 (_ bv1 1)))))
 (let (($x4629 (= R0x7ffff39e5c90 xor_0x7ffff39e6070)))
 (let (($x4425 (= R0x7ffff39ee8a0 xor_0x7ffff39eeab0)))
 (let (($x1021 (= xor_0x7ffff39eeab0 (bvxor node_0x7ffff39eda50 (_ bv1 1)))))
 (let (($x4944 (= node_0x7ffff39eda50 ine_0x7ffff3a40940)))
 (let (($x319 (= ine_0x7ffff3a40940 (ite (and (distinct node_0x7ffff3a40550 (_ bv0 64)) true) (_ bv1 1) (_ bv0 1)))))
 (let (($x4599 (= node_0x7ffff3a40550 srem_0x7ffff3a406c0)))
 (let (($x2988 (= node_0x7ffff3a3fe10 ashr_0x7ffff3a3ffb0)))
 (let (($x488 (or (or (= node_0x7ffff3a3fa90 (_ bv0 64)) (bvsge (_ bv2 64) (_ bv10 64))) (and (distinct ashr_0x7ffff3a3ffb0 (_ bv0 64)) true))))
 (let (($x489 (and (= ashr_0x7ffff3a3ffb0 (bvashr node_0x7ffff3a3fa90 (_ bv2 64))) $x488)))
 (let (($x4386 (= node_0x7ffff3a3fa90 p2i_0x7ffff3a3fc10)))
 (let (($x493 (= p2i_0x7ffff3a3fc10 node_0x7ffff3a3f620)))
 (let (($x3981 (= node_0x7ffff3a3f620 LdMem_0x7ffff3a3f7c0)))
 (let (($x3928 (= LdMem_0x7ffff3a3f7c0 StMem_0x4d45d500)))
 (let (($x4344 (= LdMem_0x7ffff3a3f7c0 StMem_0x4d45cd60)))
 (let (($x4239 (or $x4344 $x3928)))
 (let (($x3352 (or $x414 $x3928)))
 (let (($x3100 (or $x1108 $x4344)))
 (let (($x1282 (= node_0x7ffff3a401e0 (_ bv1 64))))
 (let (($x152 (= node_0x7ffff3a401e0 node_0x7ffff3a3fe10)))
 (let (($x2968 (or $x152 $x1282)))
 (let (($x3959 (or (not (and $x249 (= node_0x7ffff39ecc40 (_ bv1 1)))) $x1282)))
 (let (($x3015 (or (not (and (not (= node_0x7ffff39ecc40 (_ bv1 1))) $x249)) $x152)))
 (let (($x3969 (= node_0x7ffff39ecc40 ine_0x7ffff3a3e0c0)))
 (let (($x426 (= ine_0x7ffff3a3e0c0 (ite (and (distinct node_0x7ffff3a3ddd0 (_ bv5 32)) true) (_ bv1 1) (_ bv0 1)))))
 (let (($x4244 (= node_0x7ffff3a3da50 zext_0x7ffff3a3dbd0)))
 (let (($x463 (= zext_0x7ffff3a3dbd0 ((_ zero_extend 24) node_0x7ffff3a3d600))))
 (let (($x3753 (= node_0x7ffff3a3d600 LdMem_0x7ffff3a3d780)))
 (let (($x3009 (= LdMem_0x7ffff3a3d780 StMem_0x4d435830)))
 (let (($x3984 (= LdMem_0x7ffff3a3d780 StMem_0x4d4355f0)))
 (let (($x3300 (or $x3984 $x3009)))
 (let (($x3040 (or $x1108 $x3009)))
 (let (($x3044 (or $x414 $x3984)))
 (let (($x1191 (= node_0x7ffff3a3ddd0 (_ bv1 32))))
 (let (($x1244 (= node_0x7ffff3a3ddd0 node_0x7ffff3a3da50)))
 (let (($x3351 (or $x1244 $x1191)))
 (let (($x3912 (or (not (and $x249 (= node_0x7ffff39ebcb0 (_ bv1 1)))) $x1191)))
 (let (($x3940 (or (not (and (not (= node_0x7ffff39ebcb0 (_ bv1 1))) $x249)) $x1244)))
 (let (($x3339 (= node_0x7ffff39ebcb0 ine_0x7ffff3a3c980)))
 (let (($x436 (= ine_0x7ffff3a3c980 (ite (and (distinct node_0x7ffff3a3c5b0 (_ bv0 64)) true) (_ bv1 1) (_ bv0 1)))))
 (let (($x3021 (= node_0x7ffff3a3c5b0 and_0x7ffff3a3c750)))
 (let (($x441 (= and_0x7ffff3a3c750 (bvand node_0x7ffff3a3c260 (_ bv1 64)))))
 (let (($x3977 (= node_0x7ffff3a3c260 p2i_0x7ffff3a3c3b0)))
 (let (($x445 (= p2i_0x7ffff3a3c3b0 node_0x7ffff3a375d0)))
 (let (($x322 (= node_0x7ffff3a370e0 (_ bv1 1))))
 (let (($x449 (= select_0x7ffff3a37770 (ite $x322 carg_node_0x7ffff39e5050 carg_node_0x7ffff39e55a0))))
 (let (($x3291 (= node_0x7ffff3a375d0 select_0x7ffff3a37770)))
 (let (($x294 (= srem_0x7ffff3a406c0 (bvsrem node_0x7ffff3a3bf70 node_0x7ffff3a401e0))))
 (let (($x3974 (= node_0x7ffff3a3bba0 ashr_0x7ffff3a3bd40)))
 (let (($x398 (or (or (= node_0x7ffff3a3b6e0 (_ bv0 64)) (bvsge (_ bv2 64) (_ bv10 64))) (and (distinct ashr_0x7ffff3a3bd40 (_ bv0 64)) true))))
 (let ((?x391 (bvashr node_0x7ffff3a3b6e0 (_ bv2 64))))
 (let (($x392 (= ashr_0x7ffff3a3bd40 ?x391)))
 (let (($x399 (and $x392 $x398)))
 (let (($x3951 (= node_0x7ffff3a3b6e0 p2i_0x7ffff3a3b860)))
 (let (($x403 (= p2i_0x7ffff3a3b860 node_0x7ffff3a3b270)))
 (let (($x3047 (= node_0x7ffff3a3b270 LdMem_0x7ffff3a3b410)))
 (let (($x3316 (= StMem_0x4d45d500 parg_node_0x4d45d6b0)))
 (let (($x3164 (= StMem_0x4d45cd60 parg_node_0x4d45cf10)))
 (let (($x2967 (= LdMem_0x7ffff3a3b410 StMem_0x4d45d500)))
 (let (($x3004 (= LdMem_0x7ffff3a3b410 StMem_0x4d45cd60)))
 (let (($x2972 (or $x3004 $x2967)))
 (let (($x3022 (or $x1108 $x2967)))
 (let (($x2999 (or $x414 $x3004)))
 (let (($x1087 (= node_0x7ffff3a3bf70 (_ bv1 64))))
 (let (($x978 (= node_0x7ffff3a3bf70 node_0x7ffff3a3bba0)))
 (let (($x2980 (or $x978 $x1087)))
 (let (($x3343 (or (not (and $x249 (= node_0x7ffff39eae30 (_ bv1 1)))) $x1087)))
 (let (($x5299 (or (not (and (not (= node_0x7ffff39eae30 (_ bv1 1))) $x249)) $x978)))
 (let (($x4714 (= node_0x7ffff39eae30 ine_0x7ffff3a39ce0)))
 (let (($x283 (= ine_0x7ffff3a39ce0 (ite (and (distinct node_0x7ffff3a399f0 (_ bv5 32)) true) (_ bv1 1) (_ bv0 1)))))
 (let (($x5355 (= node_0x7ffff3a39670 zext_0x7ffff3a397f0)))
 (let (($x359 (= zext_0x7ffff3a397f0 ((_ zero_extend 24) node_0x7ffff3a39220))))
 (let (($x4902 (= node_0x7ffff3a39220 LdMem_0x7ffff3a393a0)))
 (let (($x4806 (= LdMem_0x7ffff3a393a0 StMem_0x4d435830)))
 (let (($x4802 (= LdMem_0x7ffff3a393a0 StMem_0x4d4355f0)))
 (let (($x5326 (or $x4802 $x4806)))
 (let (($x5442 (= R0x28f6d490 node_0x7ffff3a370e0)))
 (let (($x5367 (or $x414 $x4806)))
 (let (($x4978 (or $x1108 $x4802)))
 (let (($x366 (= xor_0x28f75560 (bvxor node_0x7ffff3a370e0 (_ bv1 1)))))
 (let (($x5411 (= R0x28f75380 xor_0x28f75560)))
 (let (($x73 (= node_0x7ffff3a399f0 (_ bv1 32))))
 (let (($x815 (= node_0x7ffff3a399f0 node_0x7ffff3a39670)))
 (let (($x4857 (or $x815 $x73)))
 (let (($x4397 (or (not (and $x249 (= node_0x7ffff39e9ef0 (_ bv1 1)))) $x73)))
 (let (($x4983 (or (not (and (not (= node_0x7ffff39e9ef0 (_ bv1 1))) $x249)) $x815)))
 (let (($x4996 (= node_0x7ffff39e9ef0 ine_0x7ffff3a38580)))
 (let (($x296 (= ine_0x7ffff3a38580 (ite (and (distinct node_0x7ffff3a381b0 (_ bv0 64)) true) (_ bv1 1) (_ bv0 1)))))
 (let (($x4058 (= node_0x7ffff3a381b0 and_0x7ffff3a38350)))
 (let (($x311 (= and_0x7ffff3a38350 (bvand node_0x7ffff3a37e30 (_ bv1 64)))))
 (let (($x300 (= p2i_0x7ffff3a37fb0 node_0x7ffff3a37a10)))
 (let (($x4672 (= node_0x7ffff3a37e30 p2i_0x7ffff3a37fb0)))
 (and $x4672 $x300 $x311 $x4058 $x296 $x4996 $x4983 $x4397 $x4857 $x5411 $x366 $x4978 $x5367 $x5442 $x5326 $x4902 $x359 $x5355 $x283 $x4714 $x5299 $x3343 $x2980 $x2999 $x3022 $x2972 $x3164 $x3316 $x3047 $x403 $x3951 $x399 $x3974 $x294 $x3291 $x449 $x445 $x3977 $x441 $x3021 $x436 $x3339 $x3940 $x3912 $x3351 $x3044 $x3040 $x3300 $x3753 $x463 $x4244 $x426 $x3969 $x3015 $x3959 $x2968 $x3100 $x3352 $x4239 $x3981 $x493 $x4386 $x489 $x2988 $x4599 $x319 $x4944 $x1021 $x4425 $x4629 $x151 $x231 $x4994 $x34 $x5901 $x52 $x4622 $x1159 $x2966 $x518 $x514 $x3325 $x509 $x3313 $x595 $x3909 $x531 $x2985 $x2964 $x1128 $x3315 $x4879 $x1079 $x3665 $x4896 $x4428 $x4007 $x526 $x2984 $x3366 $x3188 $x545 $x3954 $x5852 $x2976 $x4704 $x250 $x4281 $x568 $x4274 $x5626 $x28 $x5335 $x695 $x3913 $x593 $x1238 $x3016 $x370 $x3364 $x5360 $x4290 $x3370 $x3968 $x134 $x1183 $x5317 $x65 $x4325 $x3011 $x2917 $x1109 $x716 $x4302 $x4051 $x3155 $x70 $x3046 $x4253 $x1069 $x4414 $x4169 $x5999 $x1399 $x5200 $x814 $x3910 $x3294 $x3288 $x4693 $x3948 $x3982 $x1423 $x3324 $x5337 $x1048 $x5497 $x1325 $x5881 $x1581 $x5930 $x95929 $x6413 $x4300 $x1220 $x1250 $x3160 $x3884 $x3099 $x3369 $x3532 $x899 $x3776 $x889 $x4096 $x3358 $x3961 $x2991 $x2983 $x738 $x3942 $x772 $x4278 $x3109 $x734 $x3604 $x3070 $x3304 $x4267 $x670 $x2978 $x560 $x4204 $x4295 $x616 $x6238))))))))))))))))))))))))))))))))))))))))))))))))))))))))))))))))))))))))))))))))))))))))))))))))))))))))))))))))))))))))))))))))))))))))))))))))))))))))))))))))))))))))))))))))))))))))))))))))))))))))))))))))))))))))))))))))))))))))))))))))))))))))))))))))))))))))
(assert
 (= parg_node_0x393ae750_CS0x36438f8 node_0x4d47b690))
(assert
 (let (($x4229 (= node_0x4d47b690 LdMem_0x4d47b320)))
 (let (($x6096 (= StMem_0x4d443ac0 parg_node_0x4d4436e0)))
 (let (($x3033 (= LdMem_0x4d47b320 StMem_0x4d443ac0)))
 (and (or (not (= R0x7ffff39e5160 (_ bv1 1))) $x3033) $x3033 $x6096 $x4229)))))
(assert
 (= parg_node_0x393aeb60_CS0x36438f8 node_0x4d47bc00))
(assert
 (let (($x4390 (= node_0x4d47bc00 LdMem_0x4d47b890)))
 (let (($x3003 (= StMem_0x4d4441e0 parg_node_0x4d444390)))
 (let (($x3129 (= LdMem_0x4d47b890 StMem_0x4d4441e0)))
 (and (or (not (= R0x7ffff39e5160 (_ bv1 1))) $x3129) $x3129 $x3003 $x4390)))))
(assert
 (= parg_node_0x393b16a0_CS0x36438f8 node_0x4d47c430))
(assert
 (let (($x3080 (= node_0x4d47c430 LdMem_0x4d47be00)))
 (let (($x4024 (= LdMem_0x4d47be00 StMem_0x4d47bf70)))
 (and (or (not (= R0x7ffff39e5160 (_ bv1 1))) $x4024) $x4024 $x3080))))
(assert
 (= carg_node_0x7fffe96d5c00_CS0x36438f8 node_0x7ffff3a449f0))
(assert
 (let (($x540 (= node_0x7ffff3a418f0 (_ bv0 64))))
 (let (($x542 (or $x540 (= (_ bv8 64) (_ bv0 64)))))
 (let (($x1652 (and (= mul_0x7ffff3a44b70 (bvmul node_0x7ffff3a418f0 (_ bv8 64))) (or $x542 (and (distinct mul_0x7ffff3a44b70 (_ bv0 64)) true)))))
 (and (= node_0x7ffff3a449f0 mul_0x7ffff3a44b70) $x1652)))))
(assert
 (= parg_node_0x393adaa0_CS0x36438f8 node_0x4d47c9a0))
(assert
 (let (($x6002 (= node_0x4d47c9a0 LdMem_0x4d47c630)))
 (let (($x3608 (= LdMem_0x4d47c630 StMem_0x4d479820)))
 (and (or (not (= R0x7ffff39e5160 (_ bv1 1))) $x3608) $x3608 $x6002))))
(assert
 (= parg_node_0x393adce0_CS0x36438f8 node_0x4d47d3c0))
(assert
 (let (($x6338 (= node_0x4d47d3c0 LdMem_0x4d47ac70)))
 (let (($x5841 (= StMem_0x4d47ade0 parg_node_0x4d47af90)))
 (let (($x6163 (= LdMem_0x4d47ac70 StMem_0x4d47ade0)))
 (and (or (not (= R0x7ffff39e5160 (_ bv1 1))) $x6163) $x6163 $x5841 $x6338)))))
(assert
 (= node_0x393b42e0_CS0x36438f8 pcso_node_0x4d47f670))
(assert
 (= node_0x7ffff3aa0510 gep_0x7ffff3aa0770))
(assert
 (= node_0x7ffff3aa0510 (_ bv0 64)))
(maximize LdMem_0x7ffff3a31f00)
(maximize or_0x7ffff39f03b0)
(minimize islt_0x7ffff3a57df0)
(maximize node_0x7ffff3aa0510)
(minimize ine_0x7ffff3a3e0c0)
(minimize node_0x7ffff39e63f0)
(minimize and_0x28f7de80)
(maximize node_0x4d4fc210)
(maximize node_0x7ffff3a3b6e0)
(maximize node_0x7ffff39f5df0)
(maximize StMem_0x4d45e630)
(minimize node_0x7ffff3a3fe10)
(minimize LdMem_0x4d47b890)
(maximize ashr_0x7ffff3a3ffb0)
(minimize StMem_0x4d479820)
(maximize parg_node_0x4d4436e0)
(minimize node_0x7ffff3a3da50)
(maximize and_0x7ffff39f1070)
(minimize node_0x7ffff3a418f0)
(minimize p2i_0x7ffff3a62fc0)
(maximize StMem_0x4d4355f0)
(maximize parg_node_0x393adce0_CS0x36438f8)
(maximize node_0x7ffff3a33240)
(maximize node_0x7ffff3a61ca0)
(minimize StMem_0x4d45d500)
(minimize node_0x7ffff3a399f0)
(maximize LdMem_0x4d47c630)
(minimize ine_0x7ffff3a3c980)
(maximize ine_0x7ffff3a39ce0)
(maximize islt_0x7ffff3a450e0)
(maximize node_0x7ffff39e63f0)
(minimize R0x7ffff39e98a0)
(maximize ieq_0x7ffff3a4f4f0)
(maximize node_0x7ffff39f2180)
(minimize R0x28f7d5e0)
(maximize node_0x7ffff39ebcb0)
(maximize ine_0x7ffff3a66620)
(minimize node_0x7ffff3a36310)
(maximize and_0x28f7e5c0)
(maximize node_0x7ffff3a399f0)
(minimize parg_node_0x4d45e7e0)
(minimize StMem_0x4d47f7b0)
(maximize node_0x7ffff3a418f0)
(minimize LdMem_0x7ffff3a34ad0)
(minimize StMem_0x4d45f650)
(maximize iult_0x7ffff3a481c0)
(maximize and_0x28f7b8b0)
(minimize node_0x7ffff3a34400)
(minimize iult_0x7ffff3a441e0)
(maximize node_0x7ffff39eda50)
(minimize xor_0x7ffff39eeab0)
(maximize gep_0x7ffff3aa0770)
(maximize zext_0x7ffff3a397f0)
(minimize and_0x7ffff3a30950)
(minimize or_0x28f7bde0)
(minimize p2i_0x7ffff39ebe00)
(maximize parg_node_0x393b16a0_CS0x36438f8)
(maximize node_0x7ffff3a321d0)
(minimize R0x28f7ccb0)
(maximize node_0x7ffff3a3fe10)
(minimize select_0x7ffff3a37b90)
(minimize p2i_0x7ffff3a62290)
(minimize LdMem_0x4d47b320)
(maximize select_0x7ffff3a37770)
(minimize xor_0x7ffff39e95d0)
(maximize R0x7ffff39f19d0)
(check-sat)
(get-objectives)
